# Solution for model JobShopModel
# Objective value = 2290
y[0,0,1] 0
y[0,0,2] 1
y[0,1,0] 0
y[0,1,1] 1
y[0,2,0] 1
y[0,2,1] 0
y[1,0,1] 0
y[1,0,2] 1
y[1,1,0] 1
y[1,1,1] 0
y[1,2,0] 0
y[1,2,2] 1
y[2,0,1] 1
y[2,0,2] 0
y[2,1,1] 1
y[2,1,2] 0
y[2,2,0] 1
y[2,2,1] 0
x[0,0,0,0] 0
x[0,0,0,1] 1
x[0,0,0,2] 1
x[0,0,1,0] 0
x[0,0,1,1] 0
x[0,0,1,2] 1
x[0,0,2,0] 1
x[0,0,2,1] 1
x[0,0,2,2] 1
x[0,1,0,0] 0
x[0,1,0,1] 0
x[0,1,0,2] 0
x[0,1,1,0] 0
x[0,1,1,1] 0
x[0,1,1,2] 0
x[0,1,2,0] 0
x[0,1,2,1] 0
x[0,1,2,2] 1
x[0,2,0,0] 0
x[0,2,0,1] 1
x[0,2,0,2] 0
x[0,2,1,0] 0
x[0,2,1,1] 0
x[0,2,1,2] 1
x[0,2,2,0] 0
x[0,2,2,1] 0
x[0,2,2,2] 0
x[1,0,0,0] 0
x[1,0,0,1] 0
x[1,0,0,2] 0
x[1,0,1,0] 0
x[1,0,1,1] 0
x[1,0,1,2] 1
x[1,0,2,0] 1
x[1,0,2,1] 1
x[1,0,2,2] 0
x[1,1,0,0] 0
x[1,1,0,1] 0
x[1,1,0,2] 0
x[1,1,1,0] 0
x[1,1,1,1] 0
x[1,1,1,2] 1
x[1,1,2,0] 1
x[1,1,2,1] 0
x[1,1,2,2] 1
x[1,2,0,0] 0
x[1,2,0,1] 0
x[1,2,0,2] 0
x[1,2,1,0] 0
x[1,2,1,1] 0
x[1,2,1,2] 0
x[1,2,2,0] 1
x[1,2,2,1] 1
x[1,2,2,2] 1
x[2,0,0,0] 0
x[2,0,0,1] 0
x[2,0,0,2] 0
x[2,0,1,0] 0
x[2,0,1,1] 0
x[2,0,1,2] 0
x[2,0,2,0] 0
x[2,0,2,1] 1
x[2,0,2,2] 0
x[2,1,0,0] 0
x[2,1,0,1] 0
x[2,1,0,2] 0
x[2,1,1,0] 0
x[2,1,1,1] 0
x[2,1,1,2] 0
x[2,1,2,0] 0
x[2,1,2,1] 0
x[2,1,2,2] 1
x[2,2,0,0] 0
x[2,2,0,1] 0
x[2,2,0,2] 0
x[2,2,1,0] 0
x[2,2,1,1] 0
x[2,2,1,2] 0
x[2,2,2,0] 1
x[2,2,2,1] 0
x[2,2,2,2] 0
s[0,0,1] 0
s[0,0,2] 574
s[0,1,0] 0
s[0,1,1] 497
s[0,2,0] 480
s[0,2,1] 0
s[1,0,1] 0
s[1,0,2] 759
s[1,1,0] 709
s[1,1,1] 0
s[1,2,0] 0
s[1,2,2] 480
s[2,0,1] 747
s[2,0,2] 0
s[2,1,1] 613
s[2,1,2] 0
s[2,2,0] 561
s[2,2,1] 0
Z_FO 2290
